p cnf 10 50
-9 10 2 0
10 3 -9 0
2 -8 -4 0
-6 -7 5 0
-1 -9 7 0
-5 -4 -7 0
-8 -2 -7 0
-2 -4 -6 0
8 7 9 0
9 -2 8 0
10 -2 -6 0
3 7 9 0
6 7 -10 0
6 -5 3 0
-6 2 5 0
4 -10 -6 0
-7 -10 5 0
2 -4 9 0
-6 -10 7 0
6 8 3 0
1 4 -6 0
-3 7 -5 0
1 -7 -5 0
2 -5 3 0
-8 2 -7 0
-5 -10 2 0
5 -6 7 0
-3 1 5 0
3 -10 -2 0
10 -4 -2 0
-4 -3 5 0
-6 -2 -5 0
-2 -5 -6 0
9 -3 4 0
4 9 2 0
-6 5 -8 0
7 6 10 0
8 -9 1 0
-9 -3 4 0
3 5 6 0
8 1 -3 0
-5 -1 -8 0
-6 -7 4 0
-10 9 6 0
-9 1 5 0
-1 8 -10 0
-1 6 -2 0
7 -3 -2 0
1 -10 7 0
-5 -4 -10 0